282 5
10 10 10 10 10 

0 0 0 0 0 0 2 2 24 
0 0 0 0 0 0 7 3 4 5 6 7 21 22 
7 0 1 0 1 0 7 20 19 17 12 10 8 67 
4 0 2 0 2 0 5 17 16 13 12 10 
8 0 8 0 6 0 4 19 17 16 10 
2 0 7 0 6 0 4 17 16 12 11 
4 0 3 0 5 0 4 17 16 15 10 
1 0 3 0 8 0 2 16 9 
6 0 3 0 4 0 3 18 15 11 
2 0 7 0 2 0 1 11 
7 0 4 0 6 0 1 14 
10 0 6 0 4 0 1 15 
5 0 7 0 5 0 1 18 
10 0 3 0 8 0 1 23 
8 0 7 0 8 0 1 23 
1 0 4 0 7 0 1 23 
9 0 8 0 2 0 1 23 
8 0 5 0 6 0 1 23 
2 0 4 0 6 0 1 23 
1 0 6 0 4 0 1 23 
9 0 5 0 3 0 1 23 
10 0 7 0 7 0 1 23 
0 0 0 0 0 0 1 60 
0 0 0 0 0 0 5 25 26 27 29 30 
3 0 0 1 0 0 2 34 28 
4 0 0 6 0 0 4 34 33 32 31 
6 0 0 4 0 0 4 34 33 32 31 
5 0 0 6 0 0 3 33 32 31 
2 0 0 5 0 0 3 33 32 31 
9 0 0 6 0 0 2 32 31 
1 0 0 3 0 0 1 35 
4 0 0 8 0 0 2 35 252 
3 0 0 4 0 0 1 35 
10 0 0 7 0 0 1 35 
0 0 0 0 0 0 2 36 48 
0 0 0 0 0 0 6 37 38 39 40 41 43 
9 1 0 0 0 0 3 46 45 42 
10 5 0 0 0 0 3 46 45 42 
9 8 0 0 0 0 2 46 42 
4 6 0 0 0 0 2 46 42 
9 6 0 0 0 0 2 45 44 
7 6 0 0 0 0 1 44 
7 4 0 0 0 0 1 45 
1 2 0 0 0 0 1 47 
1 5 0 0 0 0 2 47 273 
2 7 0 0 0 0 1 47 
0 0 0 0 0 0 1 60 
0 0 0 0 0 0 3 49 50 51 
1 0 0 0 1 0 4 58 53 52 214 
9 0 0 0 2 0 3 57 55 54 
8 0 0 0 7 0 2 56 54 
7 0 0 0 6 0 1 55 
7 0 0 0 10 0 1 54 
6 0 0 0 7 0 1 59 
9 0 0 0 4 0 1 59 
7 0 0 0 3 0 1 59 
9 0 0 0 5 0 1 59 
1 0 0 0 5 0 1 59 
0 0 0 0 0 0 1 60 
0 0 0 0 0 0 5 61 73 85 97 109 
0 0 0 0 0 0 5 62 63 64 66 67 
2 0 0 0 1 0 2 71 65 
9 0 0 0 4 0 4 71 70 69 68 
7 0 0 0 6 0 1 65 
4 0 0 0 6 0 3 70 69 68 
4 0 0 0 4 0 3 71 69 68 
7 0 0 0 6 0 4 70 69 68 100 
5 0 0 0 4 0 1 72 
9 0 0 0 6 0 1 72 
9 0 0 0 7 0 1 72 
8 0 0 0 6 0 1 72 
0 0 0 0 0 0 1 121 
0 0 0 0 0 0 4 74 81 82 83 
3 2 0 0 0 0 3 80 79 75 
9 4 0 0 0 0 3 78 77 76 
2 2 0 0 0 0 2 84 111 
6 7 0 0 0 0 1 84 
1 10 0 0 0 0 1 84 
10 4 0 0 0 0 1 84 
9 7 0 0 0 0 1 84 
8 5 0 0 0 0 1 84 
9 6 0 0 0 0 1 84 
3 3 0 0 0 0 1 84 
0 0 0 0 0 0 1 121 
0 0 0 0 0 0 4 86 87 88 91 
3 0 0 0 0 1 4 95 94 93 89 
5 0 0 0 0 3 3 95 90 89 
2 0 0 0 0 4 2 94 92 
8 0 0 0 0 3 1 92 
8 0 0 0 0 6 1 92 
7 0 0 0 0 4 1 93 
1 0 0 0 0 7 1 96 
9 0 0 0 0 6 1 96 
1 0 0 0 0 7 2 96 107 
1 0 0 0 0 9 1 96 
0 0 0 0 0 0 1 121 
0 0 0 0 0 0 4 98 99 100 102 
7 0 1 0 0 0 4 107 106 104 101 
5 0 7 0 0 0 3 106 105 101 
4 0 7 0 0 0 2 105 103 
1 0 3 0 0 0 1 103 
4 0 6 0 0 0 1 104 
2 0 3 0 0 0 1 108 
8 0 6 0 0 0 1 108 
3 0 5 0 0 0 1 108 
5 0 7 0 0 0 2 108 225 
5 0 5 0 0 0 1 108 
0 0 0 0 0 0 1 121 
0 0 0 0 0 0 4 110 111 113 114 
10 0 0 0 1 0 3 119 115 112 
10 0 0 0 7 0 3 115 112 262 
2 0 0 0 6 0 3 118 117 116 
5 0 0 0 4 0 3 119 118 116 
7 0 0 0 7 0 3 119 117 116 
9 0 0 0 4 0 1 116 
6 0 0 0 5 0 1 120 
5 0 0 0 7 0 1 120 
3 0 0 0 1 0 1 120 
9 0 0 0 8 0 1 120 
0 0 0 0 0 0 1 121 
0 0 0 0 0 0 5 122 144 166 188 210 
0 0 0 0 0 0 8 123 124 125 126 127 128 129 132 
3 0 1 0 0 1 4 137 135 134 131 
2 0 3 0 0 8 3 135 131 130 
10 0 3 0 0 2 2 135 130 
8 0 4 0 0 3 2 135 130 
1 0 7 0 0 5 3 137 135 133 
2 0 7 0 0 7 3 137 135 133 
5 0 5 0 0 4 1 130 
3 0 5 0 0 6 2 137 133 
5 0 5 0 0 6 2 140 133 
10 0 6 0 0 7 2 140 133 
6 0 8 0 0 6 3 142 138 136 
9 0 7 0 0 4 3 140 138 136 
9 0 4 0 0 6 3 140 139 138 
3 0 1 0 0 8 2 141 139 
3 0 5 0 0 4 2 140 138 
6 0 9 0 0 3 1 143 
4 0 2 0 0 5 1 143 
7 0 5 0 0 6 1 143 
4 0 7 0 0 5 1 143 
4 0 6 0 0 4 1 143 
0 0 0 0 0 0 1 282 
0 0 0 0 0 0 6 145 146 147 148 149 150 
7 0 1 0 1 0 6 159 155 154 153 152 151 
3 0 4 0 5 0 5 156 155 154 153 151 
5 0 3 0 10 0 4 155 153 152 151 
3 0 9 0 4 0 3 155 152 151 
6 0 7 0 3 0 3 155 153 151 
7 0 6 0 7 0 4 164 163 156 154 
4 0 4 0 6 0 5 164 163 162 158 157 
1 0 5 0 5 0 3 163 162 156 
7 0 4 0 6 0 3 164 162 157 
10 0 2 0 3 0 3 162 158 157 
7 0 5 0 4 0 3 163 161 160 
8 0 3 0 6 0 1 157 
8 0 7 0 3 0 2 161 160 
9 0 5 0 8 0 2 161 160 
7 0 3 0 4 0 2 162 160 
5 0 5 0 4 0 1 165 
10 0 6 0 9 0 1 165 
1 0 4 0 4 0 1 165 
3 0 9 0 3 0 1 165 
3 0 8 0 5 0 1 165 
0 0 0 0 0 0 1 282 
0 0 0 0 0 0 6 167 169 171 172 175 176 
7 0 0 1 0 1 2 177 168 
3 0 0 5 0 3 3 184 178 170 
4 0 0 7 0 4 2 177 170 
1 0 0 8 0 6 4 186 182 180 174 
7 0 0 2 0 5 3 182 179 173 
3 0 0 6 0 4 3 183 182 177 
4 0 0 8 0 4 3 184 181 178 
5 0 0 4 0 9 3 185 183 181 
6 0 0 5 0 5 2 181 178 
5 0 0 4 0 3 2 184 180 
8 0 0 6 0 3 1 179 
7 0 0 3 0 5 1 180 
3 0 0 3 0 6 1 180 
5 0 0 6 0 5 1 187 
5 0 0 5 0 8 1 187 
1 0 0 3 0 6 1 187 
8 0 0 6 0 6 1 187 
10 0 0 8 0 4 1 187 
9 0 0 3 0 6 1 187 
5 0 0 7 0 7 1 187 
0 0 0 0 0 0 1 282 
0 0 0 0 0 0 8 189 190 191 193 194 196 198 202 
6 2 0 0 0 1 4 207 206 199 192 
8 3 0 0 0 7 6 207 206 205 204 201 199 
10 7 0 0 0 3 4 207 206 204 199 
1 4 0 0 0 1 3 208 204 195 
5 3 0 0 0 4 4 208 207 204 200 
8 6 0 0 0 3 3 206 205 197 
5 9 0 0 0 7 2 205 200 
7 6 0 0 0 5 1 199 
3 10 0 0 0 7 2 204 203 
2 5 0 0 0 3 2 205 203 
3 5 0 0 0 9 1 200 
10 1 0 0 0 3 1 203 
5 5 0 0 0 8 1 203 
2 3 0 0 0 2 1 203 
9 4 0 0 0 7 1 209 
2 5 0 0 0 5 1 209 
4 7 0 0 0 4 1 209 
10 4 0 0 0 8 1 209 
1 4 0 0 0 8 1 209 
10 7 0 0 0 5 1 209 
0 0 0 0 0 0 1 282 
0 0 0 0 0 0 5 211 212 214 215 216 
6 0 0 0 2 0 2 218 213 
3 0 0 0 4 0 2 218 213 
1 0 0 0 8 0 3 220 219 217 
5 0 0 0 3 0 2 218 217 
9 0 0 0 6 0 1 218 
5 0 0 0 1 0 1 217 
6 0 0 0 10 0 1 221 
8 0 0 0 4 0 1 221 
6 0 0 0 8 0 1 221 
3 0 0 0 4 0 1 221 
0 0 0 0 0 0 5 222 234 246 258 270 
0 0 0 0 0 0 4 223 224 225 226 
7 0 1 0 0 0 3 232 228 227 
1 0 3 0 0 0 2 232 227 
5 0 8 0 0 0 2 232 227 
7 0 7 0 0 0 1 227 
7 0 5 0 0 0 3 231 230 229 
6 0 7 0 0 0 3 231 230 229 
10 0 10 0 0 0 1 233 
8 0 5 0 0 0 1 233 
4 0 1 0 0 0 1 233 
3 0 3 0 0 0 1 233 
0 0 0 0 0 0 1 282 
0 0 0 0 0 0 4 235 236 237 240 
7 1 0 0 0 0 3 243 239 238 
5 8 0 0 0 0 4 244 243 242 241 
3 3 0 0 0 0 3 243 241 239 
2 7 0 0 0 0 2 244 241 
5 6 0 0 0 0 1 242 
7 4 0 0 0 0 1 241 
5 5 0 0 0 0 1 245 
7 7 0 0 0 0 1 245 
2 3 0 0 0 0 1 245 
9 6 0 0 0 0 1 245 
0 0 0 0 0 0 1 282 
0 0 0 0 0 0 5 247 249 250 255 256 
9 0 1 0 0 0 3 254 253 248 
3 0 5 0 0 0 1 252 
5 0 4 0 0 0 1 251 
7 0 1 0 0 0 1 251 
6 0 9 0 0 0 1 257 
3 0 7 0 0 0 1 257 
4 0 4 0 0 0 1 257 
10 0 7 0 0 0 1 257 
8 0 8 0 0 0 1 257 
10 0 4 0 0 0 1 257 
0 0 0 0 0 0 1 282 
0 0 0 0 0 0 5 259 260 263 264 268 
9 4 0 0 0 0 3 267 265 261 
8 3 0 0 0 0 2 266 262 
3 5 0 0 0 0 1 266 
5 3 0 0 0 0 1 265 
2 5 0 0 0 0 1 265 
3 6 0 0 0 0 1 265 
10 4 0 0 0 0 1 269 
7 8 0 0 0 0 1 269 
6 10 0 0 0 0 1 269 
4 2 0 0 0 0 1 269 
0 0 0 0 0 0 1 282 
0 0 0 0 0 0 5 271 272 273 279 280 
2 0 0 1 0 0 3 278 277 274 
1 0 0 4 0 0 3 278 276 275 
9 0 0 3 0 0 2 277 276 
9 0 0 5 0 0 1 275 
5 0 0 7 0 0 1 281 
3 0 0 9 0 0 1 281 
5 0 0 5 0 0 1 281 
6 0 0 6 0 0 1 281 
10 0 0 4 0 0 1 281 
10 0 0 6 0 0 1 281 
0 0 0 0 0 0 1 282 
0 0 0 0 0 0 0 
